p cnf 385 1307
c p weight 154 -1 0
c p weight -154 1 0
c p weight 156 6.12323399573676603586882014729198302312846062338790031898128063403419218957424163818359375E-17 0
c p weight -156 1 0
c p weight 157 1 0
c p weight -157 1 0
c p weight 158 -1 0
c p weight -158 1 0
c p weight 160 -1 0
c p weight -160 1 0
c p weight 163 -1 0
c p weight -163 1 0
c p weight 166 -1 0
c p weight -166 1 0
c p weight 169 -1 0
c p weight -169 1 0
c p weight 172 -1 0
c p weight -172 1 0
c p weight 175 -1 0
c p weight -175 1 0
c p weight 178 -1 0
c p weight -178 1 0
c p weight 181 -1 0
c p weight -181 1 0
c p weight 184 -1 0
c p weight -184 1 0
c p weight 187 -1 0
c p weight -187 1 0
c p weight 190 -1 0
c p weight -190 1 0
c p weight 193 -1 0
c p weight -193 1 0
c p weight 196 -1 0
c p weight -196 1 0
c p weight 199 -1 0
c p weight -199 1 0
c p weight 202 -1 0
c p weight -202 1 0
c p weight 205 -1 0
c p weight -205 1 0
c p weight 208 -1 0
c p weight -208 1 0
c p weight 211 -1 0
c p weight -211 1 0
c p weight 214 -1 0
c p weight -214 1 0
c p weight 217 -1 0
c p weight -217 1 0
c p weight 220 -1 0
c p weight -220 1 0
c p weight 223 -1 0
c p weight -223 1 0
c p weight 226 -1 0
c p weight -226 1 0
c p weight 229 -1 0
c p weight -229 1 0
c p weight 232 -1 0
c p weight -232 1 0
c p weight 235 -1 0
c p weight -235 1 0
c p weight 238 -1 0
c p weight -238 1 0
c p weight 241 -1 0
c p weight -241 1 0
c p weight 244 -1 0
c p weight -244 1 0
c p weight 247 -1 0
c p weight -247 1 0
c p weight 250 -1 0
c p weight -250 1 0
c p weight 253 -1 0
c p weight -253 1 0
c p weight 256 -1 0
c p weight -256 1 0
c p weight 259 -1 0
c p weight -259 1 0
c p weight 262 -1 0
c p weight -262 1 0
c p weight 265 -1 0
c p weight -265 1 0
c p weight 268 -1 0
c p weight -268 1 0
c p weight 271 -1 0
c p weight -271 1 0
c p weight 274 -1 0
c p weight -274 1 0
c p weight 277 -1 0
c p weight -277 1 0
c p weight 280 -1 0
c p weight -280 1 0
c p weight 283 -1 0
c p weight -283 1 0
c p weight 286 -1 0
c p weight -286 1 0
c p weight 289 -1 0
c p weight -289 1 0
c p weight 292 -1 0
c p weight -292 1 0
c p weight 295 -1 0
c p weight -295 1 0
c p weight 298 -1 0
c p weight -298 1 0
c p weight 301 -1 0
c p weight -301 1 0
c p weight 304 -1 0
c p weight -304 1 0
c p weight 307 -1 0
c p weight -307 1 0
c p weight 310 -1 0
c p weight -310 1 0
c p weight 313 -1 0
c p weight -313 1 0
c p weight 316 -1 0
c p weight -316 1 0
c p weight 319 -1 0
c p weight -319 1 0
c p weight 322 -1 0
c p weight -322 1 0
c p weight 325 -1 0
c p weight -325 1 0
c p weight 328 -1 0
c p weight -328 1 0
c p weight 331 -1 0
c p weight -331 1 0
c p weight 334 -1 0
c p weight -334 1 0
c p weight 337 -1 0
c p weight -337 1 0
c p weight 340 -1 0
c p weight -340 1 0
c p weight 343 -1 0
c p weight -343 1 0
c p weight 346 -1 0
c p weight -346 1 0
c p weight 349 -1 0
c p weight -349 1 0
c p weight 352 -1 0
c p weight -352 1 0
c p weight 355 -1 0
c p weight -355 1 0
c p weight 358 -1 0
c p weight -358 1 0
c p weight 361 -1 0
c p weight -361 1 0
c p weight 364 -1 0
c p weight -364 1 0
c p weight 367 -1 0
c p weight -367 1 0
c p weight 370 -1 0
c p weight -370 1 0
c p weight 373 -1 0
c p weight -373 1 0
c p weight 376 -1 0
c p weight -376 1 0
c p weight 379 -1 0
c p weight -379 1 0
c p weight 382 -1 0
c p weight -382 1 0
c p weight 385 -1 0
c p weight -385 1 0
-151 0
-149 0
-147 0
-145 0
-143 0
-141 0
-139 0
-137 0
-135 0
-133 0
-131 0
-129 0
-127 0
-125 0
-123 0
-121 0
-119 0
-117 0
-115 0
-113 0
-111 0
-109 0
-107 0
-105 0
-103 0
-101 0
-99 0
-97 0
-95 0
-93 0
-91 0
-89 0
-87 0
-85 0
-83 0
-81 0
-79 0
-77 0
-75 0
-73 0
-71 0
-69 0
-67 0
-65 0
-63 0
-61 0
-59 0
-57 0
-55 0
-53 0
-51 0
-49 0
-47 0
-45 0
-43 0
-41 0
-39 0
-37 0
-35 0
-33 0
-31 0
-29 0
-27 0
-25 0
-23 0
-21 0
-19 0
-17 0
-15 0
-13 0
-11 0
-9 0
-7 0
-5 0
-3 0
-1 0
153 151 -152 0
153 -151 152 0
-153 151 152 0
-153 -151 -152 0
-154 151 0
-154 152 0
154 -151 -152 0
155 -151 153 0
-155 151 153 0
-156 153 0
155 -156 -151 0
-155 -156 151 0
155 156 151 -153 0
-155 156 -151 -153 0
-157 153 0
155 -157 151 0
-155 -157 -151 0
155 157 -151 -153 0
-155 157 151 -153 0
-158 155 0
-158 153 0
-158 -151 0
158 -155 151 -153 0
159 155 -153 0
159 -155 153 0
-159 155 153 0
-159 -155 -153 0
-160 155 0
-160 153 0
160 -155 -153 0
161 155 -149 0
161 -155 149 0
-161 155 149 0
-161 -155 -149 0
162 159 -150 0
162 -159 150 0
-162 159 150 0
-162 -159 -150 0
-163 155 0
-163 150 0
-163 149 -159 0
-163 -149 159 0
163 -155 149 159 -150 0
163 -155 -149 -159 -150 0
164 161 -147 0
164 -161 147 0
-164 161 147 0
-164 -161 -147 0
165 150 -148 0
165 -150 148 0
-165 150 148 0
-165 -150 -148 0
-166 161 0
-166 148 0
-166 147 -150 0
-166 -147 150 0
166 -161 147 150 -148 0
166 -161 -147 -150 -148 0
167 164 -145 0
167 -164 145 0
-167 164 145 0
-167 -164 -145 0
168 148 -146 0
168 -148 146 0
-168 148 146 0
-168 -148 -146 0
-169 164 0
-169 146 0
-169 145 -148 0
-169 -145 148 0
169 -164 145 148 -146 0
169 -164 -145 -148 -146 0
170 167 -143 0
170 -167 143 0
-170 167 143 0
-170 -167 -143 0
171 146 -144 0
171 -146 144 0
-171 146 144 0
-171 -146 -144 0
-172 167 0
-172 144 0
-172 143 -146 0
-172 -143 146 0
172 -167 143 146 -144 0
172 -167 -143 -146 -144 0
173 170 -141 0
173 -170 141 0
-173 170 141 0
-173 -170 -141 0
174 144 -142 0
174 -144 142 0
-174 144 142 0
-174 -144 -142 0
-175 170 0
-175 142 0
-175 141 -144 0
-175 -141 144 0
175 -170 141 144 -142 0
175 -170 -141 -144 -142 0
176 173 -139 0
176 -173 139 0
-176 173 139 0
-176 -173 -139 0
177 142 -140 0
177 -142 140 0
-177 142 140 0
-177 -142 -140 0
-178 173 0
-178 140 0
-178 139 -142 0
-178 -139 142 0
178 -173 139 142 -140 0
178 -173 -139 -142 -140 0
179 176 -137 0
179 -176 137 0
-179 176 137 0
-179 -176 -137 0
180 140 -138 0
180 -140 138 0
-180 140 138 0
-180 -140 -138 0
-181 176 0
-181 138 0
-181 137 -140 0
-181 -137 140 0
181 -176 137 140 -138 0
181 -176 -137 -140 -138 0
182 179 -135 0
182 -179 135 0
-182 179 135 0
-182 -179 -135 0
183 138 -136 0
183 -138 136 0
-183 138 136 0
-183 -138 -136 0
-184 179 0
-184 136 0
-184 135 -138 0
-184 -135 138 0
184 -179 135 138 -136 0
184 -179 -135 -138 -136 0
185 182 -133 0
185 -182 133 0
-185 182 133 0
-185 -182 -133 0
186 136 -134 0
186 -136 134 0
-186 136 134 0
-186 -136 -134 0
-187 182 0
-187 134 0
-187 133 -136 0
-187 -133 136 0
187 -182 133 136 -134 0
187 -182 -133 -136 -134 0
188 185 -131 0
188 -185 131 0
-188 185 131 0
-188 -185 -131 0
189 134 -132 0
189 -134 132 0
-189 134 132 0
-189 -134 -132 0
-190 185 0
-190 132 0
-190 131 -134 0
-190 -131 134 0
190 -185 131 134 -132 0
190 -185 -131 -134 -132 0
191 188 -129 0
191 -188 129 0
-191 188 129 0
-191 -188 -129 0
192 132 -130 0
192 -132 130 0
-192 132 130 0
-192 -132 -130 0
-193 188 0
-193 130 0
-193 129 -132 0
-193 -129 132 0
193 -188 129 132 -130 0
193 -188 -129 -132 -130 0
194 191 -127 0
194 -191 127 0
-194 191 127 0
-194 -191 -127 0
195 130 -128 0
195 -130 128 0
-195 130 128 0
-195 -130 -128 0
-196 191 0
-196 128 0
-196 127 -130 0
-196 -127 130 0
196 -191 127 130 -128 0
196 -191 -127 -130 -128 0
197 194 -125 0
197 -194 125 0
-197 194 125 0
-197 -194 -125 0
198 128 -126 0
198 -128 126 0
-198 128 126 0
-198 -128 -126 0
-199 194 0
-199 126 0
-199 125 -128 0
-199 -125 128 0
199 -194 125 128 -126 0
199 -194 -125 -128 -126 0
200 197 -123 0
200 -197 123 0
-200 197 123 0
-200 -197 -123 0
201 126 -124 0
201 -126 124 0
-201 126 124 0
-201 -126 -124 0
-202 197 0
-202 124 0
-202 123 -126 0
-202 -123 126 0
202 -197 123 126 -124 0
202 -197 -123 -126 -124 0
203 200 -121 0
203 -200 121 0
-203 200 121 0
-203 -200 -121 0
204 124 -122 0
204 -124 122 0
-204 124 122 0
-204 -124 -122 0
-205 200 0
-205 122 0
-205 121 -124 0
-205 -121 124 0
205 -200 121 124 -122 0
205 -200 -121 -124 -122 0
206 203 -119 0
206 -203 119 0
-206 203 119 0
-206 -203 -119 0
207 122 -120 0
207 -122 120 0
-207 122 120 0
-207 -122 -120 0
-208 203 0
-208 120 0
-208 119 -122 0
-208 -119 122 0
208 -203 119 122 -120 0
208 -203 -119 -122 -120 0
209 206 -117 0
209 -206 117 0
-209 206 117 0
-209 -206 -117 0
210 120 -118 0
210 -120 118 0
-210 120 118 0
-210 -120 -118 0
-211 206 0
-211 118 0
-211 117 -120 0
-211 -117 120 0
211 -206 117 120 -118 0
211 -206 -117 -120 -118 0
212 209 -115 0
212 -209 115 0
-212 209 115 0
-212 -209 -115 0
213 118 -116 0
213 -118 116 0
-213 118 116 0
-213 -118 -116 0
-214 209 0
-214 116 0
-214 115 -118 0
-214 -115 118 0
214 -209 115 118 -116 0
214 -209 -115 -118 -116 0
215 212 -113 0
215 -212 113 0
-215 212 113 0
-215 -212 -113 0
216 116 -114 0
216 -116 114 0
-216 116 114 0
-216 -116 -114 0
-217 212 0
-217 114 0
-217 113 -116 0
-217 -113 116 0
217 -212 113 116 -114 0
217 -212 -113 -116 -114 0
218 215 -111 0
218 -215 111 0
-218 215 111 0
-218 -215 -111 0
219 114 -112 0
219 -114 112 0
-219 114 112 0
-219 -114 -112 0
-220 215 0
-220 112 0
-220 111 -114 0
-220 -111 114 0
220 -215 111 114 -112 0
220 -215 -111 -114 -112 0
221 218 -109 0
221 -218 109 0
-221 218 109 0
-221 -218 -109 0
222 112 -110 0
222 -112 110 0
-222 112 110 0
-222 -112 -110 0
-223 218 0
-223 110 0
-223 109 -112 0
-223 -109 112 0
223 -218 109 112 -110 0
223 -218 -109 -112 -110 0
224 221 -107 0
224 -221 107 0
-224 221 107 0
-224 -221 -107 0
225 110 -108 0
225 -110 108 0
-225 110 108 0
-225 -110 -108 0
-226 221 0
-226 108 0
-226 107 -110 0
-226 -107 110 0
226 -221 107 110 -108 0
226 -221 -107 -110 -108 0
227 224 -105 0
227 -224 105 0
-227 224 105 0
-227 -224 -105 0
228 108 -106 0
228 -108 106 0
-228 108 106 0
-228 -108 -106 0
-229 224 0
-229 106 0
-229 105 -108 0
-229 -105 108 0
229 -224 105 108 -106 0
229 -224 -105 -108 -106 0
230 227 -103 0
230 -227 103 0
-230 227 103 0
-230 -227 -103 0
231 106 -104 0
231 -106 104 0
-231 106 104 0
-231 -106 -104 0
-232 227 0
-232 104 0
-232 103 -106 0
-232 -103 106 0
232 -227 103 106 -104 0
232 -227 -103 -106 -104 0
233 230 -101 0
233 -230 101 0
-233 230 101 0
-233 -230 -101 0
234 104 -102 0
234 -104 102 0
-234 104 102 0
-234 -104 -102 0
-235 230 0
-235 102 0
-235 101 -104 0
-235 -101 104 0
235 -230 101 104 -102 0
235 -230 -101 -104 -102 0
236 233 -99 0
236 -233 99 0
-236 233 99 0
-236 -233 -99 0
237 102 -100 0
237 -102 100 0
-237 102 100 0
-237 -102 -100 0
-238 233 0
-238 100 0
-238 99 -102 0
-238 -99 102 0
238 -233 99 102 -100 0
238 -233 -99 -102 -100 0
239 236 -97 0
239 -236 97 0
-239 236 97 0
-239 -236 -97 0
240 100 -98 0
240 -100 98 0
-240 100 98 0
-240 -100 -98 0
-241 236 0
-241 98 0
-241 97 -100 0
-241 -97 100 0
241 -236 97 100 -98 0
241 -236 -97 -100 -98 0
242 239 -95 0
242 -239 95 0
-242 239 95 0
-242 -239 -95 0
243 98 -96 0
243 -98 96 0
-243 98 96 0
-243 -98 -96 0
-244 239 0
-244 96 0
-244 95 -98 0
-244 -95 98 0
244 -239 95 98 -96 0
244 -239 -95 -98 -96 0
245 242 -93 0
245 -242 93 0
-245 242 93 0
-245 -242 -93 0
246 96 -94 0
246 -96 94 0
-246 96 94 0
-246 -96 -94 0
-247 242 0
-247 94 0
-247 93 -96 0
-247 -93 96 0
247 -242 93 96 -94 0
247 -242 -93 -96 -94 0
248 245 -91 0
248 -245 91 0
-248 245 91 0
-248 -245 -91 0
249 94 -92 0
249 -94 92 0
-249 94 92 0
-249 -94 -92 0
-250 245 0
-250 92 0
-250 91 -94 0
-250 -91 94 0
250 -245 91 94 -92 0
250 -245 -91 -94 -92 0
251 248 -89 0
251 -248 89 0
-251 248 89 0
-251 -248 -89 0
252 92 -90 0
252 -92 90 0
-252 92 90 0
-252 -92 -90 0
-253 248 0
-253 90 0
-253 89 -92 0
-253 -89 92 0
253 -248 89 92 -90 0
253 -248 -89 -92 -90 0
254 251 -87 0
254 -251 87 0
-254 251 87 0
-254 -251 -87 0
255 90 -88 0
255 -90 88 0
-255 90 88 0
-255 -90 -88 0
-256 251 0
-256 88 0
-256 87 -90 0
-256 -87 90 0
256 -251 87 90 -88 0
256 -251 -87 -90 -88 0
257 254 -85 0
257 -254 85 0
-257 254 85 0
-257 -254 -85 0
258 88 -86 0
258 -88 86 0
-258 88 86 0
-258 -88 -86 0
-259 254 0
-259 86 0
-259 85 -88 0
-259 -85 88 0
259 -254 85 88 -86 0
259 -254 -85 -88 -86 0
260 257 -83 0
260 -257 83 0
-260 257 83 0
-260 -257 -83 0
261 86 -84 0
261 -86 84 0
-261 86 84 0
-261 -86 -84 0
-262 257 0
-262 84 0
-262 83 -86 0
-262 -83 86 0
262 -257 83 86 -84 0
262 -257 -83 -86 -84 0
263 260 -81 0
263 -260 81 0
-263 260 81 0
-263 -260 -81 0
264 84 -82 0
264 -84 82 0
-264 84 82 0
-264 -84 -82 0
-265 260 0
-265 82 0
-265 81 -84 0
-265 -81 84 0
265 -260 81 84 -82 0
265 -260 -81 -84 -82 0
266 263 -79 0
266 -263 79 0
-266 263 79 0
-266 -263 -79 0
267 82 -80 0
267 -82 80 0
-267 82 80 0
-267 -82 -80 0
-268 263 0
-268 80 0
-268 79 -82 0
-268 -79 82 0
268 -263 79 82 -80 0
268 -263 -79 -82 -80 0
269 266 -77 0
269 -266 77 0
-269 266 77 0
-269 -266 -77 0
270 80 -78 0
270 -80 78 0
-270 80 78 0
-270 -80 -78 0
-271 266 0
-271 78 0
-271 77 -80 0
-271 -77 80 0
271 -266 77 80 -78 0
271 -266 -77 -80 -78 0
272 269 -75 0
272 -269 75 0
-272 269 75 0
-272 -269 -75 0
273 78 -76 0
273 -78 76 0
-273 78 76 0
-273 -78 -76 0
-274 269 0
-274 76 0
-274 75 -78 0
-274 -75 78 0
274 -269 75 78 -76 0
274 -269 -75 -78 -76 0
275 272 -73 0
275 -272 73 0
-275 272 73 0
-275 -272 -73 0
276 76 -74 0
276 -76 74 0
-276 76 74 0
-276 -76 -74 0
-277 272 0
-277 74 0
-277 73 -76 0
-277 -73 76 0
277 -272 73 76 -74 0
277 -272 -73 -76 -74 0
278 275 -71 0
278 -275 71 0
-278 275 71 0
-278 -275 -71 0
279 74 -72 0
279 -74 72 0
-279 74 72 0
-279 -74 -72 0
-280 275 0
-280 72 0
-280 71 -74 0
-280 -71 74 0
280 -275 71 74 -72 0
280 -275 -71 -74 -72 0
281 278 -69 0
281 -278 69 0
-281 278 69 0
-281 -278 -69 0
282 72 -70 0
282 -72 70 0
-282 72 70 0
-282 -72 -70 0
-283 278 0
-283 70 0
-283 69 -72 0
-283 -69 72 0
283 -278 69 72 -70 0
283 -278 -69 -72 -70 0
284 281 -67 0
284 -281 67 0
-284 281 67 0
-284 -281 -67 0
285 70 -68 0
285 -70 68 0
-285 70 68 0
-285 -70 -68 0
-286 281 0
-286 68 0
-286 67 -70 0
-286 -67 70 0
286 -281 67 70 -68 0
286 -281 -67 -70 -68 0
287 284 -65 0
287 -284 65 0
-287 284 65 0
-287 -284 -65 0
288 68 -66 0
288 -68 66 0
-288 68 66 0
-288 -68 -66 0
-289 284 0
-289 66 0
-289 65 -68 0
-289 -65 68 0
289 -284 65 68 -66 0
289 -284 -65 -68 -66 0
290 287 -63 0
290 -287 63 0
-290 287 63 0
-290 -287 -63 0
291 66 -64 0
291 -66 64 0
-291 66 64 0
-291 -66 -64 0
-292 287 0
-292 64 0
-292 63 -66 0
-292 -63 66 0
292 -287 63 66 -64 0
292 -287 -63 -66 -64 0
293 290 -61 0
293 -290 61 0
-293 290 61 0
-293 -290 -61 0
294 64 -62 0
294 -64 62 0
-294 64 62 0
-294 -64 -62 0
-295 290 0
-295 62 0
-295 61 -64 0
-295 -61 64 0
295 -290 61 64 -62 0
295 -290 -61 -64 -62 0
296 293 -59 0
296 -293 59 0
-296 293 59 0
-296 -293 -59 0
297 62 -60 0
297 -62 60 0
-297 62 60 0
-297 -62 -60 0
-298 293 0
-298 60 0
-298 59 -62 0
-298 -59 62 0
298 -293 59 62 -60 0
298 -293 -59 -62 -60 0
299 296 -57 0
299 -296 57 0
-299 296 57 0
-299 -296 -57 0
300 60 -58 0
300 -60 58 0
-300 60 58 0
-300 -60 -58 0
-301 296 0
-301 58 0
-301 57 -60 0
-301 -57 60 0
301 -296 57 60 -58 0
301 -296 -57 -60 -58 0
302 299 -55 0
302 -299 55 0
-302 299 55 0
-302 -299 -55 0
303 58 -56 0
303 -58 56 0
-303 58 56 0
-303 -58 -56 0
-304 299 0
-304 56 0
-304 55 -58 0
-304 -55 58 0
304 -299 55 58 -56 0
304 -299 -55 -58 -56 0
305 302 -53 0
305 -302 53 0
-305 302 53 0
-305 -302 -53 0
306 56 -54 0
306 -56 54 0
-306 56 54 0
-306 -56 -54 0
-307 302 0
-307 54 0
-307 53 -56 0
-307 -53 56 0
307 -302 53 56 -54 0
307 -302 -53 -56 -54 0
308 305 -51 0
308 -305 51 0
-308 305 51 0
-308 -305 -51 0
309 54 -52 0
309 -54 52 0
-309 54 52 0
-309 -54 -52 0
-310 305 0
-310 52 0
-310 51 -54 0
-310 -51 54 0
310 -305 51 54 -52 0
310 -305 -51 -54 -52 0
311 308 -49 0
311 -308 49 0
-311 308 49 0
-311 -308 -49 0
312 52 -50 0
312 -52 50 0
-312 52 50 0
-312 -52 -50 0
-313 308 0
-313 50 0
-313 49 -52 0
-313 -49 52 0
313 -308 49 52 -50 0
313 -308 -49 -52 -50 0
314 311 -47 0
314 -311 47 0
-314 311 47 0
-314 -311 -47 0
315 50 -48 0
315 -50 48 0
-315 50 48 0
-315 -50 -48 0
-316 311 0
-316 48 0
-316 47 -50 0
-316 -47 50 0
316 -311 47 50 -48 0
316 -311 -47 -50 -48 0
317 314 -45 0
317 -314 45 0
-317 314 45 0
-317 -314 -45 0
318 48 -46 0
318 -48 46 0
-318 48 46 0
-318 -48 -46 0
-319 314 0
-319 46 0
-319 45 -48 0
-319 -45 48 0
319 -314 45 48 -46 0
319 -314 -45 -48 -46 0
320 317 -43 0
320 -317 43 0
-320 317 43 0
-320 -317 -43 0
321 46 -44 0
321 -46 44 0
-321 46 44 0
-321 -46 -44 0
-322 317 0
-322 44 0
-322 43 -46 0
-322 -43 46 0
322 -317 43 46 -44 0
322 -317 -43 -46 -44 0
323 320 -41 0
323 -320 41 0
-323 320 41 0
-323 -320 -41 0
324 44 -42 0
324 -44 42 0
-324 44 42 0
-324 -44 -42 0
-325 320 0
-325 42 0
-325 41 -44 0
-325 -41 44 0
325 -320 41 44 -42 0
325 -320 -41 -44 -42 0
326 323 -39 0
326 -323 39 0
-326 323 39 0
-326 -323 -39 0
327 42 -40 0
327 -42 40 0
-327 42 40 0
-327 -42 -40 0
-328 323 0
-328 40 0
-328 39 -42 0
-328 -39 42 0
328 -323 39 42 -40 0
328 -323 -39 -42 -40 0
329 326 -37 0
329 -326 37 0
-329 326 37 0
-329 -326 -37 0
330 40 -38 0
330 -40 38 0
-330 40 38 0
-330 -40 -38 0
-331 326 0
-331 38 0
-331 37 -40 0
-331 -37 40 0
331 -326 37 40 -38 0
331 -326 -37 -40 -38 0
332 329 -35 0
332 -329 35 0
-332 329 35 0
-332 -329 -35 0
333 38 -36 0
333 -38 36 0
-333 38 36 0
-333 -38 -36 0
-334 329 0
-334 36 0
-334 35 -38 0
-334 -35 38 0
334 -329 35 38 -36 0
334 -329 -35 -38 -36 0
335 332 -33 0
335 -332 33 0
-335 332 33 0
-335 -332 -33 0
336 36 -34 0
336 -36 34 0
-336 36 34 0
-336 -36 -34 0
-337 332 0
-337 34 0
-337 33 -36 0
-337 -33 36 0
337 -332 33 36 -34 0
337 -332 -33 -36 -34 0
338 335 -31 0
338 -335 31 0
-338 335 31 0
-338 -335 -31 0
339 34 -32 0
339 -34 32 0
-339 34 32 0
-339 -34 -32 0
-340 335 0
-340 32 0
-340 31 -34 0
-340 -31 34 0
340 -335 31 34 -32 0
340 -335 -31 -34 -32 0
341 338 -29 0
341 -338 29 0
-341 338 29 0
-341 -338 -29 0
342 32 -30 0
342 -32 30 0
-342 32 30 0
-342 -32 -30 0
-343 338 0
-343 30 0
-343 29 -32 0
-343 -29 32 0
343 -338 29 32 -30 0
343 -338 -29 -32 -30 0
344 341 -27 0
344 -341 27 0
-344 341 27 0
-344 -341 -27 0
345 30 -28 0
345 -30 28 0
-345 30 28 0
-345 -30 -28 0
-346 341 0
-346 28 0
-346 27 -30 0
-346 -27 30 0
346 -341 27 30 -28 0
346 -341 -27 -30 -28 0
347 344 -25 0
347 -344 25 0
-347 344 25 0
-347 -344 -25 0
348 28 -26 0
348 -28 26 0
-348 28 26 0
-348 -28 -26 0
-349 344 0
-349 26 0
-349 25 -28 0
-349 -25 28 0
349 -344 25 28 -26 0
349 -344 -25 -28 -26 0
350 347 -23 0
350 -347 23 0
-350 347 23 0
-350 -347 -23 0
351 26 -24 0
351 -26 24 0
-351 26 24 0
-351 -26 -24 0
-352 347 0
-352 24 0
-352 23 -26 0
-352 -23 26 0
352 -347 23 26 -24 0
352 -347 -23 -26 -24 0
353 350 -21 0
353 -350 21 0
-353 350 21 0
-353 -350 -21 0
354 24 -22 0
354 -24 22 0
-354 24 22 0
-354 -24 -22 0
-355 350 0
-355 22 0
-355 21 -24 0
-355 -21 24 0
355 -350 21 24 -22 0
355 -350 -21 -24 -22 0
356 353 -19 0
356 -353 19 0
-356 353 19 0
-356 -353 -19 0
357 22 -20 0
357 -22 20 0
-357 22 20 0
-357 -22 -20 0
-358 353 0
-358 20 0
-358 19 -22 0
-358 -19 22 0
358 -353 19 22 -20 0
358 -353 -19 -22 -20 0
359 356 -17 0
359 -356 17 0
-359 356 17 0
-359 -356 -17 0
360 20 -18 0
360 -20 18 0
-360 20 18 0
-360 -20 -18 0
-361 356 0
-361 18 0
-361 17 -20 0
-361 -17 20 0
361 -356 17 20 -18 0
361 -356 -17 -20 -18 0
362 359 -15 0
362 -359 15 0
-362 359 15 0
-362 -359 -15 0
363 18 -16 0
363 -18 16 0
-363 18 16 0
-363 -18 -16 0
-364 359 0
-364 16 0
-364 15 -18 0
-364 -15 18 0
364 -359 15 18 -16 0
364 -359 -15 -18 -16 0
365 362 -13 0
365 -362 13 0
-365 362 13 0
-365 -362 -13 0
366 16 -14 0
366 -16 14 0
-366 16 14 0
-366 -16 -14 0
-367 362 0
-367 14 0
-367 13 -16 0
-367 -13 16 0
367 -362 13 16 -14 0
367 -362 -13 -16 -14 0
368 365 -11 0
368 -365 11 0
-368 365 11 0
-368 -365 -11 0
369 14 -12 0
369 -14 12 0
-369 14 12 0
-369 -14 -12 0
-370 365 0
-370 12 0
-370 11 -14 0
-370 -11 14 0
370 -365 11 14 -12 0
370 -365 -11 -14 -12 0
371 368 -9 0
371 -368 9 0
-371 368 9 0
-371 -368 -9 0
372 12 -10 0
372 -12 10 0
-372 12 10 0
-372 -12 -10 0
-373 368 0
-373 10 0
-373 9 -12 0
-373 -9 12 0
373 -368 9 12 -10 0
373 -368 -9 -12 -10 0
374 371 -7 0
374 -371 7 0
-374 371 7 0
-374 -371 -7 0
375 10 -8 0
375 -10 8 0
-375 10 8 0
-375 -10 -8 0
-376 371 0
-376 8 0
-376 7 -10 0
-376 -7 10 0
376 -371 7 10 -8 0
376 -371 -7 -10 -8 0
377 374 -5 0
377 -374 5 0
-377 374 5 0
-377 -374 -5 0
378 8 -6 0
378 -8 6 0
-378 8 6 0
-378 -8 -6 0
-379 374 0
-379 6 0
-379 5 -8 0
-379 -5 8 0
379 -374 5 8 -6 0
379 -374 -5 -8 -6 0
380 377 -3 0
380 -377 3 0
-380 377 3 0
-380 -377 -3 0
381 6 -4 0
381 -6 4 0
-381 6 4 0
-381 -6 -4 0
-382 377 0
-382 4 0
-382 3 -6 0
-382 -3 6 0
382 -377 3 6 -4 0
382 -377 -3 -6 -4 0
383 380 -1 0
383 -380 1 0
-383 380 1 0
-383 -380 -1 0
384 4 -2 0
384 -4 2 0
-384 4 2 0
-384 -4 -2 0
-385 380 0
-385 2 0
-385 1 -4 0
-385 -1 4 0
385 -380 1 4 -2 0
385 -380 -1 -4 -2 0
-383 0
-380 0
-384 0
-377 0
-381 0
-374 0
-378 0
-371 0
-375 0
-368 0
-372 0
-365 0
-369 0
-362 0
-366 0
-359 0
-363 0
-356 0
-360 0
-353 0
-357 0
-350 0
-354 0
-347 0
-351 0
-344 0
-348 0
-341 0
-345 0
-338 0
-342 0
-335 0
-339 0
-332 0
-336 0
-329 0
-333 0
-326 0
-330 0
-323 0
-327 0
-320 0
-324 0
-317 0
-321 0
-314 0
-318 0
-311 0
-315 0
-308 0
-312 0
-305 0
-309 0
-302 0
-306 0
-299 0
-303 0
-296 0
-300 0
-293 0
-297 0
-290 0
-294 0
-287 0
-291 0
-284 0
-288 0
-281 0
-285 0
-278 0
-282 0
-275 0
-279 0
-272 0
-276 0
-269 0
-273 0
-266 0
-270 0
-263 0
-267 0
-260 0
-264 0
-257 0
-261 0
-254 0
-258 0
-251 0
-255 0
-248 0
-252 0
-245 0
-249 0
-242 0
-246 0
-239 0
-243 0
-236 0
-240 0
-233 0
-237 0
-230 0
-234 0
-227 0
-231 0
-224 0
-228 0
-221 0
-225 0
-218 0
-222 0
-215 0
-219 0
-212 0
-216 0
-209 0
-213 0
-206 0
-210 0
-203 0
-207 0
-200 0
-204 0
-197 0
-201 0
-194 0
-198 0
-191 0
-195 0
-188 0
-192 0
-185 0
-189 0
-182 0
-186 0
-179 0
-183 0
-176 0
-180 0
-173 0
-177 0
-170 0
-174 0
-167 0
-171 0
-164 0
-168 0
-161 0
-165 0
-155 0
-162 0
